NAME : instances/50-tsp/instance-32.tsp
COMMENT : No comment
TYPE : TSP
DIMENSION: 50
EDGE_WEIGHT_TYPE : EUC_2D
NODE_COORD_SECTION
1 377 1771 
2 1403 859 
3 675 1325 
4 1247 1284 
5 322 328 
6 1702 1055 
7 1847 706 
8 1309 587 
9 691 1450 
10 1605 1626 
11 1603 510 
12 1463 60 
13 35 1895 
14 1483 557 
15 1150 204 
16 1096 1240 
17 1496 1565 
18 404 459 
19 879 171 
20 381 248 
21 274 1333 
22 625 830 
23 118 760 
24 128 1049 
25 1771 1314 
26 1104 1085 
27 323 788 
28 16 1687 
29 1653 1928 
30 1328 399 
31 1488 1157 
32 1279 1649 
33 321 1022 
34 1298 821 
35 568 575 
36 1981 1467 
37 748 1204 
38 162 435 
39 600 914 
40 1892 1093 
41 410 861 
42 465 1419 
43 216 5 
44 1721 1612 
45 1293 283 
46 454 1748 
47 1362 93 
48 728 1740 
49 1548 1016 
50 64 355 
EOF
